W=7;
H=5;

MAX_TIME=24;
MAX_TRACKS=14;
SEMAPHORE_SUPPLY=1;

TARGET=(3,7);

TRAINS=[(3,6,LEFT),(1,1,RIGHT),(5,1,RIGHT)];
DECOYS=[];

INIT_POS=[
(1,1,STRAIGHT_RL),
(1,7,ROCK),
(2,2,CORNER_DR),
(2,5,CORNER_DR),
(2,7,ROCK),
(3,1,ROCK),
(3,2,STRAIGHT_TD),
(3,3,DSWITCH_D_T_R),
(3,4,SWITCH_L_R_T),
(3,5,DSWITCH_L_R_T),
(3,6,STRAIGHT_RL),
(3,7,STRAIGHT_RL),
(4,5,ROCK),
(5,1,STRAIGHT_RL),
(5,5,ROCK),
];
TUNNEL_PAIRS=[];

GATES=[];
ACTIVATIONS=[
(3,2,1),
];

DSWITCHES=[
(3,3,1),
(3,5,1),
];
STATIONS=[];
